p cnf 8 35
8 0
-1 -2 -3 -4 -5 -6 -7 0
-1 -2 -3 -4 -5 -6 -8 0
-1 -2 -3 -4 -5 -7 -8 0
-1 -2 -3 -4 -6 -7 -8 0
-1 -2 -3 -5 -6 -7 -8 0
-1 -2 -4 -5 -6 -7 -8 0
-1 -3 -4 -5 -6 -7 -8 0
-2 -3 -4 -5 -6 -7 -8 0
-1 -2 -3 -4 -5 -6 -7 -8 0
-1 6 8 0
-1 2 0
-2 1 0
-2 3 0
-3 2 0
-3 4 0
-4 3 0
-4 5 0
-5 4 0
-5 6 7 0
-6 5 7 0
-6 1 8 0
-7 5 6 0
-7 8 0
-8 7 0
-8 1 6 0
-1 -2 -6 -8 0
-5 -4 -6 -7 0
-6 -1 -5 -7 0
-6 -1 -5 -8 0
-6 -1 -7 -8 0
-6 -5 -7 -8 0
-6 -1 -5 -7 -8 0
-7 -5 -6 -8 0
-8 -1 -6 -7 0
